unsat
(:SPACER-conj                         6
 :SPACER-inductive-gen                24
 :SPACER-inductive-gen-weaken-fail    24
 :SPACER-inductive-level              8
 :SPACER-max-depth                    10
 :SPACER-max-query-lvl                10
 :SPACER-non-local-gen                21
 :SPACER-num-active-lemmas            16
 :SPACER-num-ctp-blocked              26
 :SPACER-num-invariants               11
 :SPACER-num-is_invariant             72
 :SPACER-num-lemma-jumped             2
 :SPACER-num-lemmas                   52
 :SPACER-num-pobs                     16
 :SPACER-num-propagations             19
 :SPACER-num-queries                  24
 :SPACER-subsume-pob                  2
 :SPACER-subsume-success              4
 :added-eqs                           2864
 :arith-assert-diseq                  412
 :arith-assert-lower                  3566
 :arith-assert-upper                  4940
 :arith-bound-prop                    246
 :arith-conflicts                     78
 :arith-eq-adapter                    420
 :arith-fixed-eqs                     498
 :arith-num-rows                      48
 :arith-offset-eqs                    114
 :arith-pivots                        404
 :arith-row-summations                1334
 :arith-tableau-max-columns           102
 :arith-tableau-max-rows              48
 :conflicts                           494
 :decisions                           2968
 :del-clause                          638
 :final-checks                        120
 :iuc_solver.num_proxies              58
 :max-memory                          32.22
 :memory                              31.76
 :minimized-lits                      48
 :mk-bool-var                         2178
 :mk-clause                           1642
 :num-allocs                          36848476
 :num-checks                          444
 :pool_solver.checks                  222
 :pool_solver.checks.sat              59
 :pool_solver.checks.undef            1
 :propagations                        18910
 :rlimit-count                        126239
 :time                                0.16
 :time.iuc_solver.get_iuc             0.03
 :time.iuc_solver.get_iuc.hyp_reduce1 0.01
 :time.iuc_solver.get_iuc.hyp_reduce2 0.01
 :time.iuc_solver.get_iuc.learn_core  0.01
 :time.pool_solver.proof              0.00
 :time.pool_solver.smt.total          0.04
 :time.pool_solver.smt.total.sat      0.01
 :time.spacer.ctp                     0.00
 :time.spacer.init_rules              0.00
 :time.spacer.mbp                     0.00
 :time.spacer.solve                   0.14
 :time.spacer.solve.propagate         0.02
 :time.spacer.solve.reach             0.12
 :time.spacer.solve.reach.children    0.01
 :time.spacer.solve.reach.cluster     0.02
 :time.spacer.solve.reach.gen.global  0.02
 :time.spacer.solve.reach.gen.ind     0.01
 :time.spacer.solve.reach.is-reach    0.00)
(:max-memory   32.22
 :memory       31.76
 :num-allocs   36848476
 :rlimit-count 126239
 :time         0.16
 :total-time   0.18)
